(declare-fun bvlambda_8_ () (_ BitVec 3))
(declare-fun bvlambda_9_ () (_ BitVec 2))
(declare-fun a44 () (Array (_ BitVec 1) (_ BitVec 2)))
(assert
(let (($e1 (_ bv0 1)))
(let (($e3 (_ bv7618 14)))
(let (($e5 (_ bv0 6)))
(let (($e47 (concat $e5 true       )))
(let (($e48 (concat $e47 false      )))
(let (($e49 (concat $e48 bvlambda_8_)))
(let (($e50 (concat $e49 bvlambda_9_)))
(let (($e51 (concat $e50 false       )))
(let (($e52      (bvult        $e3  $e51)         ))
(let (($e129 (store a44 (bvnot $e1) bvlambda_9_)))
(let (($e150 (select $e129 (bvnot $e52))))
             (   extract      $e150)
                                                                                                                                                                                                                                                         )                    )                                                                            ))))))                        ) ) ))
